Numerical_Analysis/Instances_208/Original_request/carrier_0_208.leadtime.lower_bound.mps
NAME          RCONMILP
ROWS
 N  00000000
 E  00000001
 E  00000002
 E  00000003
 E  00000004
 E  00000005
 E  00000006
 E  00000007
 E  00000008
 L  00000009
 L  00000010
 L  00000011
 L  00000012
 L  00000013
 L  00000014
 L  00000015
 L  00000016
 L  00000017
 L  00000018
 L  00000019
 L  00000020
COLUMNS
    INT1      'MARKER'                 'INTORG'
    00000000  00000000 2233333
    00000000  00000001 1
    00000000  00000002 1
    00000000  00000004 1
    00000000  00000008 1
    00000000  00000009 1
    00000000  00000015 1
    00000001  00000000 4466666
    00000001  00000001 1
    00000001  00000002 1
    00000001  00000004 1
    00000001  00000008 1
    00000001  00000010 1
    00000001  00000015 1
    00000002  00000000 6700000
    00000002  00000001 1
    00000002  00000002 1
    00000002  00000004 1
    00000002  00000008 1
    00000002  00000011 1
    00000002  00000015 1
    00000003  00000000 8933333
    00000003  00000001 1
    00000003  00000002 1
    00000003  00000004 1
    00000003  00000008 1
    00000003  00000012 1
    00000003  00000015 1
    00000004  00000000 11166666
    00000004  00000001 1
    00000004  00000002 1
    00000004  00000004 1
    00000004  00000008 1
    00000004  00000013 1
    00000004  00000015 1
    00000005  00000000 13400000
    00000005  00000001 1
    00000005  00000002 1
    00000005  00000004 1
    00000005  00000008 1
    00000005  00000014 1
    00000005  00000015 1
    00000006  00000000 566666
    00000006  00000003 1
    00000006  00000004 1
    00000006  00000008 1
    00000006  00000009 1
    00000006  00000016 1
    00000007  00000000 1133333
    00000007  00000003 1
    00000007  00000004 1
    00000007  00000008 1
    00000007  00000010 1
    00000007  00000016 1
    00000008  00000000 1700000
    00000008  00000003 1
    00000008  00000004 1
    00000008  00000008 1
    00000008  00000011 1
    00000008  00000016 1
    00000009  00000000 2266666
    00000009  00000003 1
    00000009  00000004 1
    00000009  00000008 1
    00000009  00000012 1
    00000009  00000016 1
    00000010  00000000 2833333
    00000010  00000003 1
    00000010  00000004 1
    00000010  00000008 1
    00000010  00000013 1
    00000010  00000016 1
    00000011  00000000 3400000
    00000011  00000003 1
    00000011  00000004 1
    00000011  00000008 1
    00000011  00000014 1
    00000011  00000016 1
    00000012  00000000 899999
    00000012  00000003 1
    00000012  00000004 1
    00000012  00000006 1
    00000012  00000008 1
    00000012  00000009 1
    00000012  00000017 1
    00000013  00000000 1799999
    00000013  00000003 1
    00000013  00000004 1
    00000013  00000006 1
    00000013  00000008 1
    00000013  00000010 1
    00000013  00000017 1
    00000014  00000000 2700000
    00000014  00000003 1
    00000014  00000004 1
    00000014  00000006 1
    00000014  00000008 1
    00000014  00000011 1
    00000014  00000017 1
    00000015  00000000 3599999
    00000015  00000003 1
    00000015  00000004 1
    00000015  00000006 1
    00000015  00000008 1
    00000015  00000012 1
    00000015  00000017 1
    00000016  00000000 4500000
    00000016  00000003 1
    00000016  00000004 1
    00000016  00000006 1
    00000016  00000008 1
    00000016  00000013 1
    00000016  00000017 1
    00000017  00000000 5400000
    00000017  00000003 1
    00000017  00000004 1
    00000017  00000006 1
    00000017  00000008 1
    00000017  00000014 1
    00000017  00000017 1
    00000018  00000000 1400000
    00000018  00000005 1
    00000018  00000007 1
    00000018  00000008 1
    00000018  00000009 1
    00000018  00000018 1
    00000019  00000000 2800000
    00000019  00000005 1
    00000019  00000007 1
    00000019  00000008 1
    00000019  00000010 1
    00000019  00000018 1
    00000020  00000000 4200000
    00000020  00000005 1
    00000020  00000007 1
    00000020  00000008 1
    00000020  00000011 1
    00000020  00000018 1
    00000021  00000000 5600000
    00000021  00000005 1
    00000021  00000007 1
    00000021  00000008 1
    00000021  00000012 1
    00000021  00000018 1
    00000022  00000000 7000000
    00000022  00000005 1
    00000022  00000007 1
    00000022  00000008 1
    00000022  00000013 1
    00000022  00000018 1
    00000023  00000000 8400000
    00000023  00000005 1
    00000023  00000007 1
    00000023  00000008 1
    00000023  00000014 1
    00000023  00000018 1
    00000024  00000000 399999
    00000024  00000006 1
    00000024  00000008 1
    00000024  00000009 1
    00000024  00000019 1
    00000025  00000000 799999
    00000025  00000006 1
    00000025  00000008 1
    00000025  00000010 1
    00000025  00000019 1
    00000026  00000000 1200000
    00000026  00000006 1
    00000026  00000008 1
    00000026  00000011 1
    00000026  00000019 1
    00000027  00000000 1599999
    00000027  00000006 1
    00000027  00000008 1
    00000027  00000012 1
    00000027  00000019 1
    00000028  00000000 2000000
    00000028  00000006 1
    00000028  00000008 1
    00000028  00000013 1
    00000028  00000019 1
    00000029  00000000 2400000
    00000029  00000006 1
    00000029  00000008 1
    00000029  00000014 1
    00000029  00000019 1
    00000030  00000000 333333
    00000030  00000005 1
    00000030  00000009 1
    00000030  00000020 1
    00000031  00000000 666666
    00000031  00000005 1
    00000031  00000010 1
    00000031  00000020 1
    00000032  00000000 1000000
    00000032  00000005 1
    00000032  00000011 1
    00000032  00000020 1
    00000033  00000000 1333333
    00000033  00000005 1
    00000033  00000012 1
    00000033  00000020 1
    00000034  00000000 1666666
    00000034  00000005 1
    00000034  00000013 1
    00000034  00000020 1
    00000035  00000000 2000000
    00000035  00000005 1
    00000035  00000014 1
    00000035  00000020 1
    INT1      'MARKER'                 'INTEND'
RHS
    RHS1      00000001 1
    RHS1      00000002 1
    RHS1      00000003 2
    RHS1      00000004 3
    RHS1      00000005 2
    RHS1      00000006 2
    RHS1      00000007 1
    RHS1      00000008 5
    RHS1      00000009 1
    RHS1      00000010 1
    RHS1      00000011 1
    RHS1      00000012 1
    RHS1      00000013 1
    RHS1      00000014 1
    RHS1      00000015 1
    RHS1      00000016 1
    RHS1      00000017 1
    RHS1      00000018 1
    RHS1      00000019 1
    RHS1      00000020 1
BOUNDS
 UI BOUND     00000000       1
 UI BOUND     00000001       1
 UI BOUND     00000002       1
 UI BOUND     00000003       1
 UI BOUND     00000004       1
 UI BOUND     00000005       1
 UI BOUND     00000006       1
 UI BOUND     00000007       1
 UI BOUND     00000008       1
 UI BOUND     00000009       1
 UI BOUND     00000010       1
 UI BOUND     00000011       1
 UI BOUND     00000012       1
 UI BOUND     00000013       1
 UI BOUND     00000014       1
 UI BOUND     00000015       1
 UI BOUND     00000016       1
 UI BOUND     00000017       1
 UI BOUND     00000018       1
 UI BOUND     00000019       1
 UI BOUND     00000020       1
 UI BOUND     00000021       1
 UI BOUND     00000022       1
 UI BOUND     00000023       1
 UI BOUND     00000024       1
 UI BOUND     00000025       1
 UI BOUND     00000026       1
 UI BOUND     00000027       1
 UI BOUND     00000028       1
 UI BOUND     00000029       1
 UI BOUND     00000030       1
 UI BOUND     00000031       1
 UI BOUND     00000032       1
 UI BOUND     00000033       1
 UI BOUND     00000034       1
 UI BOUND     00000035       1
 LI BOUND     00000000       0
 LI BOUND     00000001       0
 LI BOUND     00000002       0
 LI BOUND     00000003       0
 LI BOUND     00000004       0
 LI BOUND     00000005       0
 LI BOUND     00000006       0
 LI BOUND     00000007       0
 LI BOUND     00000008       0
 LI BOUND     00000009       0
 LI BOUND     00000010       0
 LI BOUND     00000011       0
 LI BOUND     00000012       0
 LI BOUND     00000013       0
 LI BOUND     00000014       0
 LI BOUND     00000015       0
 LI BOUND     00000016       0
 LI BOUND     00000017       0
 LI BOUND     00000018       0
 LI BOUND     00000019       0
 LI BOUND     00000020       0
 LI BOUND     00000021       0
 LI BOUND     00000022       0
 LI BOUND     00000023       0
 LI BOUND     00000024       0
 LI BOUND     00000025       0
 LI BOUND     00000026       0
 LI BOUND     00000027       0
 LI BOUND     00000028       0
 LI BOUND     00000029       0
 LI BOUND     00000030       0
 LI BOUND     00000031       0
 LI BOUND     00000032       0
 LI BOUND     00000033       0
 LI BOUND     00000034       0
 LI BOUND     00000035       0
ENDATA
