Numerical_Analysis/Instances_208/Original_request/carrier_0_208.leadtime.lower_bound.sol
00000000 Qj00g00 1
00000009 Qj01g03 1
00000014 Qj02g02 1
00000019 Qj03g01 1
00000028 Qj04g04 1
00000035 Qj05g05 1
